results_rootrelaxation/bin018_090_028.srr.sol
solution status: optimal solution found
objective value:                                   54
_var2846_                           0.191192504897374 	(obj:6)
_var2940_                           0.328167449032433 	(obj:2)
_var2967_                          0.0940230902251004 	(obj:4)
_var2979_                          0.0658188162957584 	(obj:2)
_var2982_                           0.114857719957357 	(obj:6)
_var3136_                           0.177584982034648 	(obj:2)
_var3202_                           0.176505537811595 	(obj:2)
_var3291_                           0.107612051289116 	(obj:3)
_var3294_                            0.27105900993247 	(obj:3)
_var3301_                             0.4458495832927 	(obj:0)
_var3303_                           0.727795522445889 	(obj:2)
_var3310_                           0.131382707619026 	(obj:2)
_var3347_                           0.131382707619026 	(obj:3)
_var3350_                            0.30762648636061 	(obj:2)
_var3351_                          0.0712530550862829 	(obj:3)
_var3352_                           0.153770749329551 	(obj:1)
_var3356_                          0.0109818905524625 	(obj:6)
_var3357_                          0.0650033597448768 	(obj:5)
_var3374_                         0.00334064499857645 	(obj:4)
_var3411_                           0.389661226412905 	(obj:2)
_var3431_                          0.0864242389551383 	(obj:3)
_var3434_                           0.587174267389939 	(obj:2)
_var3453_                          0.0618045741720711 	(obj:5)
_var3458_                           0.158950338545215 	(obj:5)
_var3465_                          0.0754119445068873 	(obj:6)
_var3466_                          0.0435112288183977 	(obj:3)
_var3469_                          0.0268611513268156 	(obj:3)
_var3483_                           0.186968337770178 	(obj:2)
_var3487_                           0.249842717249037 	(obj:4)
_var3497_                           0.150305086528128 	(obj:3)
_var3504_                           0.106331926948371 	(obj:4)
_var3506_                           0.280559011383598 	(obj:3)
_var3507_                           0.222359078356072 	(obj:2)
_var3516_                          0.0829101612543959 	(obj:4)
_var3540_                           0.034193091473096 	(obj:5)
_var3542_                           0.480919303480466 	(obj:4)
_var3543_                           0.016876933092594 	(obj:6)
_var3545_                           0.016383929007412 	(obj:4)
_var3547_                           0.355727826409359 	(obj:2)
_var3554_                           0.432727781307687 	(obj:3)
_var3565_                           0.422209571350621 	(obj:2)
_var3566_                            0.02727989550652 	(obj:5)
_var3571_                           0.118049963777799 	(obj:4)
_var3576_                          0.0223872663603479 	(obj:5)
_var3577_                           0.164616250276442 	(obj:5)
_var3579_                          0.0528985333319156 	(obj:4)
_var3581_                           0.177584982034648 	(obj:2)
_var3583_                          0.0909763707370401 	(obj:4)
_var3585_                          0.0123515021678949 	(obj:3)
_var3594_                           0.138579711411686 	(obj:6)
_var3600_                         0.00510370234585895 	(obj:5)
_var3603_                          0.0803045736530468 	(obj:4)
_var3604_                          0.0313350151088443 	(obj:3)
_var3608_                          0.0311665734586926 	(obj:4)
_var3609_                          0.0223872663603495 	(obj:3)
_var3619_                           0.529778046264544 	(obj:2)
_var3624_                           0.213411329607572 	(obj:2)
_var3626_                          0.0274581328376947 	(obj:2)
_var3635_                           0.259494437360248 	(obj:5)
_var3636_                          0.0152161287582887 	(obj:3)
_var3637_                            0.14205450470302 	(obj:2)
_var3644_                           0.068240806904821 	(obj:3)
_var3646_                          0.0644802822410218 	(obj:4)
_var3647_                          0.0955207024113356 	(obj:4)
_var3648_                           0.304353216327336 	(obj:3)
_var3652_                            0.49575921792333 	(obj:3)
_var3657_                          0.0859956906206221 	(obj:5)
_var3663_                           0.349859942310132 	(obj:5)
_var3665_                          0.0238142327050969 	(obj:3)
_var3672_                           0.198152039688945 	(obj:4)
_var3673_                          0.0820607502970498 	(obj:3)
_var3681_                           0.296350903326393 	(obj:4)
_var3685_                          0.0227551212991975 	(obj:6)
_var3689_                          0.0516906775600918 	(obj:3)
_var3701_                            0.05688894720728 	(obj:4)
_var3710_                           0.475647057799201 	(obj:3)
_var3712_                           0.148131233399745 	(obj:3)
_var3714_                           0.221145608709945 	(obj:4)
_var3715_                           0.163844573471283 	(obj:4)
_var3722_                          0.0152161287582887 	(obj:4)
_var3725_                          0.0967207707862123 	(obj:4)
_var3730_                         0.00623345111946872 	(obj:5)
_var3733_                           0.123250190866431 	(obj:4)
_var3739_                           0.434257343853212 	(obj:3)
_var3743_                          0.0518174706183142 	(obj:3)
_var3749_                           0.169413138503795 	(obj:4)
_var3750_                           0.246548017045086 	(obj:4)
_var3751_                          0.0770259651430874 	(obj:2)
_var3753_                           0.122446262883071 	(obj:5)
_var3755_                          0.0807920486016676 	(obj:3)
_var3757_                          0.0367798969576547 	(obj:4)
_var3759_                           0.165905712714494 	(obj:5)
_var3760_                           0.126203118403368 	(obj:2)
_var3761_                          0.0298438811216979 	(obj:3)
_var3767_                          0.0427568851149372 	(obj:4)
_var3769_                          0.0710788597445851 	(obj:4)
_var3770_                           0.446162879847181 	(obj:4)
_var3775_                          0.0326738669300367 	(obj:3)
_var3776_                          0.0659064689986912 	(obj:5)
_var3778_                          0.0223872663603443 	(obj:3)
_var3781_                           0.194443925308194 	(obj:5)
_var3782_                          0.0679431995401541 	(obj:4)
_var3784_                          0.0417885617078171 	(obj:4)
_var3786_                           0.113332542589136 	(obj:4)
_var3793_                          0.0962390834242187 	(obj:5)
_var3794_                         0.00894774874849329 	(obj:4)
_var3795_                          0.0603843021076117 	(obj:4)
_var3799_                          0.0447740963214188 	(obj:3)
_var3800_                           0.111565129722765 	(obj:4)
_var3808_                          0.0948681032945257 	(obj:4)
_var3814_                           0.103815852043023 	(obj:4)
_var3818_                            0.10987684494418 	(obj:4)
_var3819_                          0.0542441472235715 	(obj:4)
_var3820_                          0.0142167574486609 	(obj:3)
_var3830_                          0.0032672748392043 	(obj:6)
_var3831_                         0.00586788409922684 	(obj:4)
_var3834_                         0.000558137737654708 	(obj:3)
