results_rootrelaxation/bin018_090_028.srr.log
SCIP version 8.0.3.5 [precision: 8 byte] [memory: block] [mode: optimized] [LP solver: Soplex 6.0.1.3] [GitHash: 438792519e]
Copyright (c) 2002-2023 Zuse Institute Berlin (ZIB)

External libraries: 
  Readline 8.1         GNU library for command line editing (gnu.org/s/readline)
  Soplex 6.0.1.3       Linear Programming Solver developed at Zuse Institute Berlin (soplex.zib.de) [GitHash: 713be0fe]
  CppAD 20180000.0     Algorithmic Differentiation of C++ algorithms developed by B. Bell (github.com/coin-or/CppAD)
  ZLIB 1.2.11          General purpose compression library by J. Gailly and M. Adler (zlib.net)
  bliss 0.77           Computing Graph Automorphism Groups by T. Junttila and P. Kaski (www.tcs.hut.fi/Software/bliss/)

user parameter file <scip.set> not found - using default parameters

srr/relaxation = TRUE

read problem <instances/bin018_090_028.srr>
============

Original problem: 
original problem has 0 variables (0 bin, 0 int, 0 impl, 0 cont) and 170 constraints

presolving:
presolving (1 rounds: 1 fast, 1 medium, 1 exhaustive):
 0 deleted vars, 0 deleted constraints, 0 added constraints, 0 tightened bounds, 0 added holes, 0 changed sides, 0 changed coefficients
 0 implications, 0 cliques
presolved problem has 0 variables (0 bin, 0 int, 0 impl, 0 cont) and 170 constraints
    170 constraints of type <linear>
Presolving Time: 0.00

 time | node  | left  |LP iter|LP it/n|mem/heur|mdpt |vars |cons |rows |cuts |sepa|confs|strbr|  dualbound   | primalbound  |  gap   | compl. 
  0.0s|     1 |     0 |     1 |     - |   922k |   0 |   1 | 170 | 170 |   0 |  0 |   0 |   0 |      --      |      --      |    Inf | unknown
  0.2s|     1 |     0 |  1708 |     - |  7177k |   0 |1615 | 170 | 170 |   0 |  0 |   0 |   0 |      --      |      --      |    Inf | unknown
r 0.9s|     1 |     0 |  7145 |     - |simplero|   0 |2737 | 170 | 170 |   0 |  0 |   0 |   0 |      --      | 1.096593e+02 |    Inf | unknown
r 0.9s|     1 |     0 |  7221 |     - |simplero|   0 |2754 | 170 | 170 |   0 |  0 |   0 |   0 |      --      | 1.086351e+02 |    Inf | unknown
r 0.9s|     1 |     0 |  7323 |     - |simplero|   0 |2771 | 170 | 170 |   0 |  0 |   0 |   0 |      --      | 1.073817e+02 |    Inf | unknown
r 0.9s|     1 |     0 |  7445 |     - |simplero|   0 |2788 | 170 | 170 |   0 |  0 |   0 |   0 |      --      | 1.055566e+02 |    Inf | unknown
r 0.9s|     1 |     0 |  7517 |     - |simplero|   0 |2788 | 170 | 170 |   0 |  0 |   0 |   0 |      --      | 1.048904e+02 |    Inf | unknown
r 0.9s|     1 |     0 |  7529 |     - |simplero|   0 |2788 | 170 | 170 |   0 |  0 |   0 |   0 |      --      | 1.048851e+02 |    Inf | unknown
r 0.9s|     1 |     0 |  7721 |     - |simplero|   0 |2805 | 170 | 170 |   0 |  0 |   0 |   0 |      --      | 1.008922e+02 |    Inf | unknown
r 0.9s|     1 |     0 |  7737 |     - |simplero|   0 |2805 | 170 | 170 |   0 |  0 |   0 |   0 |      --      | 1.008517e+02 |    Inf | unknown
r 1.0s|     1 |     0 |  7913 |     - |simplero|   0 |2822 | 170 | 170 |   0 |  0 |   0 |   0 |      --      | 9.824632e+01 |    Inf | unknown
r 1.0s|     1 |     0 |  7953 |     - |simplero|   0 |2822 | 170 | 170 |   0 |  0 |   0 |   0 |      --      | 9.811331e+01 |    Inf | unknown
r 1.0s|     1 |     0 |  7962 |     - |simplero|   0 |2822 | 170 | 170 |   0 |  0 |   0 |   0 |      --      | 9.810186e+01 |    Inf | unknown
r 1.0s|     1 |     0 |  8088 |     - |simplero|   0 |2839 | 170 | 170 |   0 |  0 |   0 |   0 |      --      | 9.660364e+01 |    Inf | unknown
r 1.0s|     1 |     0 |  8137 |     - |simplero|   0 |2839 | 170 | 170 |   0 |  0 |   0 |   0 |      --      | 9.630514e+01 |    Inf | unknown
 time | node  | left  |LP iter|LP it/n|mem/heur|mdpt |vars |cons |rows |cuts |sepa|confs|strbr|  dualbound   | primalbound  |  gap   | compl. 
r 1.0s|     1 |     0 |  8162 |     - |simplero|   0 |2839 | 170 | 170 |   0 |  0 |   0 |   0 |      --      | 9.627415e+01 |    Inf | unknown
r 1.0s|     1 |     0 |  8313 |     - |simplero|   0 |2856 | 170 | 170 |   0 |  0 |   0 |   0 |      --      | 9.380406e+01 |    Inf | unknown
r 1.0s|     1 |     0 |  8401 |     - |simplero|   0 |2856 | 170 | 170 |   0 |  0 |   0 |   0 |      --      | 9.344507e+01 |    Inf | unknown
r 1.0s|     1 |     0 |  8432 |     - |simplero|   0 |2856 | 170 | 170 |   0 |  0 |   0 |   0 |      --      | 9.340877e+01 |    Inf | unknown
r 1.0s|     1 |     0 |  8550 |     - |simplero|   0 |2873 | 170 | 170 |   0 |  0 |   0 |   0 |      --      | 9.198095e+01 |    Inf | unknown
r 1.1s|     1 |     0 |  8611 |     - |simplero|   0 |2873 | 170 | 170 |   0 |  0 |   0 |   0 |      --      | 9.177305e+01 |    Inf | unknown
r 1.1s|     1 |     0 |  8742 |     - |simplero|   0 |2890 | 170 | 170 |   0 |  0 |   0 |   0 |      --      | 9.047380e+01 |    Inf | unknown
r 1.1s|     1 |     0 |  8809 |     - |simplero|   0 |2890 | 170 | 170 |   0 |  0 |   0 |   0 |      --      | 9.025184e+01 |    Inf | unknown
r 1.1s|     1 |     0 |  8825 |     - |simplero|   0 |2890 | 170 | 170 |   0 |  0 |   0 |   0 |      --      | 9.023538e+01 |    Inf | unknown
r 1.1s|     1 |     0 |  9032 |     - |simplero|   0 |2907 | 170 | 170 |   0 |  0 |   0 |   0 |      --      | 8.836778e+01 |    Inf | unknown
r 1.1s|     1 |     0 |  9076 |     - |simplero|   0 |2907 | 170 | 170 |   0 |  0 |   0 |   0 |      --      | 8.820308e+01 |    Inf | unknown
r 1.1s|     1 |     0 |  9086 |     - |simplero|   0 |2907 | 170 | 170 |   0 |  0 |   0 |   0 |      --      | 8.819687e+01 |    Inf | unknown
r 1.1s|     1 |     0 |  9268 |     - |simplero|   0 |2924 | 170 | 170 |   0 |  0 |   0 |   0 |      --      | 8.584672e+01 |    Inf | unknown
r 1.1s|     1 |     0 |  9310 |     - |simplero|   0 |2924 | 170 | 170 |   0 |  0 |   0 |   0 |      --      | 8.574720e+01 |    Inf | unknown
r 1.1s|     1 |     0 |  9322 |     - |simplero|   0 |2924 | 170 | 170 |   0 |  0 |   0 |   0 |      --      | 8.573455e+01 |    Inf | unknown
 time | node  | left  |LP iter|LP it/n|mem/heur|mdpt |vars |cons |rows |cuts |sepa|confs|strbr|  dualbound   | primalbound  |  gap   | compl. 
r 1.2s|     1 |     0 |  9476 |     - |simplero|   0 |2941 | 170 | 170 |   0 |  0 |   0 |   0 |      --      | 8.364571e+01 |    Inf | unknown
r 1.2s|     1 |     0 |  9551 |     - |simplero|   0 |2941 | 170 | 170 |   0 |  0 |   0 |   0 |      --      | 8.343623e+01 |    Inf | unknown
r 1.2s|     1 |     0 |  9576 |     - |simplero|   0 |2941 | 170 | 170 |   0 |  0 |   0 |   0 |      --      | 8.340700e+01 |    Inf | unknown
r 1.2s|     1 |     0 |  9807 |     - |simplero|   0 |2958 | 170 | 170 |   0 |  0 |   0 |   0 |      --      | 8.152663e+01 |    Inf | unknown
  1.2s|     1 |     0 |  9867 |     - |    14M |   0 |2958 | 170 | 170 |   0 |  0 |   0 |   0 |      --      | 8.152663e+01 |    Inf | unknown
r 1.2s|     1 |     0 |  9867 |     - |simplero|   0 |2958 | 170 | 170 |   0 |  0 |   0 |   0 |      --      | 8.130620e+01 |    Inf | unknown
r 1.2s|     1 |     0 |  9871 |     - |simplero|   0 |2958 | 170 | 170 |   0 |  0 |   0 |   0 |      --      | 8.130474e+01 |    Inf | unknown
r 1.2s|     1 |     0 | 10052 |     - |simplero|   0 |2975 | 170 | 170 |   0 |  0 |   0 |   0 |      --      | 7.986379e+01 |    Inf | unknown
r 1.2s|     1 |     0 | 10142 |     - |simplero|   0 |2975 | 170 | 170 |   0 |  0 |   0 |   0 |      --      | 7.943242e+01 |    Inf | unknown
r 1.2s|     1 |     0 | 10165 |     - |simplero|   0 |2975 | 170 | 170 |   0 |  0 |   0 |   0 |      --      | 7.942289e+01 |    Inf | unknown
r 1.2s|     1 |     0 | 10167 |     - |simplero|   0 |2975 | 170 | 170 |   0 |  0 |   0 |   0 |      --      | 7.942240e+01 |    Inf | unknown
r 1.3s|     1 |     0 | 10334 |     - |simplero|   0 |2992 | 170 | 170 |   0 |  0 |   0 |   0 |      --      | 7.773365e+01 |    Inf | unknown
r 1.3s|     1 |     0 | 10423 |     - |simplero|   0 |2992 | 170 | 170 |   0 |  0 |   0 |   0 |      --      | 7.726744e+01 |    Inf | unknown
r 1.3s|     1 |     0 | 10454 |     - |simplero|   0 |2992 | 170 | 170 |   0 |  0 |   0 |   0 |      --      | 7.723089e+01 |    Inf | unknown
r 1.3s|     1 |     0 | 10460 |     - |simplero|   0 |2992 | 170 | 170 |   0 |  0 |   0 |   0 |      --      | 7.722979e+01 |    Inf | unknown
 time | node  | left  |LP iter|LP it/n|mem/heur|mdpt |vars |cons |rows |cuts |sepa|confs|strbr|  dualbound   | primalbound  |  gap   | compl. 
r 1.3s|     1 |     0 | 10461 |     - |simplero|   0 |2992 | 170 | 170 |   0 |  0 |   0 |   0 |      --      | 7.722978e+01 |    Inf | unknown
r 1.3s|     1 |     0 | 10686 |     - |simplero|   0 |3009 | 170 | 170 |   0 |  0 |   0 |   0 |      --      | 7.490899e+01 |    Inf | unknown
r 1.3s|     1 |     0 | 10741 |     - |simplero|   0 |3009 | 170 | 170 |   0 |  0 |   0 |   0 |      --      | 7.473932e+01 |    Inf | unknown
r 1.3s|     1 |     0 | 10756 |     - |simplero|   0 |3009 | 170 | 170 |   0 |  0 |   0 |   0 |      --      | 7.472687e+01 |    Inf | unknown
r 1.3s|     1 |     0 | 10764 |     - |simplero|   0 |3009 | 170 | 170 |   0 |  0 |   0 |   0 |      --      | 7.472422e+01 |    Inf | unknown
r 1.3s|     1 |     0 | 10919 |     - |simplero|   0 |3026 | 170 | 170 |   0 |  0 |   0 |   0 |      --      | 7.333233e+01 |    Inf | unknown
r 1.3s|     1 |     0 | 10956 |     - |simplero|   0 |3026 | 170 | 170 |   0 |  0 |   0 |   0 |      --      | 7.316780e+01 |    Inf | unknown
r 1.3s|     1 |     0 | 10972 |     - |simplero|   0 |3026 | 170 | 170 |   0 |  0 |   0 |   0 |      --      | 7.314711e+01 |    Inf | unknown
r 1.4s|     1 |     0 | 11149 |     - |simplero|   0 |3043 | 170 | 170 |   0 |  0 |   0 |   0 |      --      | 7.203460e+01 |    Inf | unknown
r 1.4s|     1 |     0 | 11190 |     - |simplero|   0 |3043 | 170 | 170 |   0 |  0 |   0 |   0 |      --      | 7.198494e+01 |    Inf | unknown
r 1.4s|     1 |     0 | 11206 |     - |simplero|   0 |3043 | 170 | 170 |   0 |  0 |   0 |   0 |      --      | 7.197835e+01 |    Inf | unknown
r 1.4s|     1 |     0 | 11370 |     - |simplero|   0 |3060 | 170 | 170 |   0 |  0 |   0 |   0 |      --      | 7.109437e+01 |    Inf | unknown
r 1.4s|     1 |     0 | 11393 |     - |simplero|   0 |3060 | 170 | 170 |   0 |  0 |   0 |   0 |      --      | 7.105471e+01 |    Inf | unknown
r 1.4s|     1 |     0 | 11396 |     - |simplero|   0 |3060 | 170 | 170 |   0 |  0 |   0 |   0 |      --      | 7.105143e+01 |    Inf | unknown
r 1.4s|     1 |     0 | 11398 |     - |simplero|   0 |3060 | 170 | 170 |   0 |  0 |   0 |   0 |      --      | 7.105122e+01 |    Inf | unknown
 time | node  | left  |LP iter|LP it/n|mem/heur|mdpt |vars |cons |rows |cuts |sepa|confs|strbr|  dualbound   | primalbound  |  gap   | compl. 
r 1.4s|     1 |     0 | 11537 |     - |simplero|   0 |3077 | 170 | 170 |   0 |  0 |   0 |   0 |      --      | 7.037119e+01 |    Inf | unknown
r 1.4s|     1 |     0 | 11629 |     - |simplero|   0 |3077 | 170 | 170 |   0 |  0 |   0 |   0 |      --      | 6.994962e+01 |    Inf | unknown
r 1.4s|     1 |     0 | 11664 |     - |simplero|   0 |3077 | 170 | 170 |   0 |  0 |   0 |   0 |      --      | 6.989233e+01 |    Inf | unknown
r 1.4s|     1 |     0 | 11680 |     - |simplero|   0 |3077 | 170 | 170 |   0 |  0 |   0 |   0 |      --      | 6.988014e+01 |    Inf | unknown
r 1.5s|     1 |     0 | 11820 |     - |simplero|   0 |3094 | 170 | 170 |   0 |  0 |   0 |   0 |      --      | 6.931084e+01 |    Inf | unknown
r 1.5s|     1 |     0 | 11854 |     - |simplero|   0 |3094 | 170 | 170 |   0 |  0 |   0 |   0 |      --      | 6.929874e+01 |    Inf | unknown
r 1.5s|     1 |     0 | 11862 |     - |simplero|   0 |3094 | 170 | 170 |   0 |  0 |   0 |   0 |      --      | 6.929537e+01 |    Inf | unknown
r 1.5s|     1 |     0 | 12084 |     - |simplero|   0 |3111 | 170 | 170 |   0 |  0 |   0 |   0 |      --      | 6.780695e+01 |    Inf | unknown
r 1.5s|     1 |     0 | 12135 |     - |simplero|   0 |3111 | 170 | 170 |   0 |  0 |   0 |   0 |      --      | 6.769506e+01 |    Inf | unknown
r 1.5s|     1 |     0 | 12153 |     - |simplero|   0 |3111 | 170 | 170 |   0 |  0 |   0 |   0 |      --      | 6.767257e+01 |    Inf | unknown
r 1.5s|     1 |     0 | 12155 |     - |simplero|   0 |3111 | 170 | 170 |   0 |  0 |   0 |   0 |      --      | 6.767168e+01 |    Inf | unknown
r 1.5s|     1 |     0 | 12275 |     - |simplero|   0 |3128 | 170 | 170 |   0 |  0 |   0 |   0 |      --      | 6.697676e+01 |    Inf | unknown
r 1.5s|     1 |     0 | 12327 |     - |simplero|   0 |3128 | 170 | 170 |   0 |  0 |   0 |   0 |      --      | 6.682458e+01 |    Inf | unknown
r 1.5s|     1 |     0 | 12342 |     - |simplero|   0 |3128 | 170 | 170 |   0 |  0 |   0 |   0 |      --      | 6.680494e+01 |    Inf | unknown
r 1.5s|     1 |     0 | 12349 |     - |simplero|   0 |3128 | 170 | 170 |   0 |  0 |   0 |   0 |      --      | 6.680298e+01 |    Inf | unknown
 time | node  | left  |LP iter|LP it/n|mem/heur|mdpt |vars |cons |rows |cuts |sepa|confs|strbr|  dualbound   | primalbound  |  gap   | compl. 
r 1.5s|     1 |     0 | 12351 |     - |simplero|   0 |3128 | 170 | 170 |   0 |  0 |   0 |   0 |      --      | 6.680291e+01 |    Inf | unknown
r 1.5s|     1 |     0 | 12505 |     - |simplero|   0 |3145 | 170 | 170 |   0 |  0 |   0 |   0 |      --      | 6.596155e+01 |    Inf | unknown
r 1.6s|     1 |     0 | 12536 |     - |simplero|   0 |3145 | 170 | 170 |   0 |  0 |   0 |   0 |      --      | 6.593334e+01 |    Inf | unknown
r 1.6s|     1 |     0 | 12537 |     - |simplero|   0 |3145 | 170 | 170 |   0 |  0 |   0 |   0 |      --      | 6.593331e+01 |    Inf | unknown
r 1.6s|     1 |     0 | 12667 |     - |simplero|   0 |3162 | 170 | 170 |   0 |  0 |   0 |   0 |      --      | 6.517444e+01 |    Inf | unknown
r 1.6s|     1 |     0 | 12698 |     - |simplero|   0 |3162 | 170 | 170 |   0 |  0 |   0 |   0 |      --      | 6.515466e+01 |    Inf | unknown
r 1.6s|     1 |     0 | 12850 |     - |simplero|   0 |3179 | 170 | 170 |   0 |  0 |   0 |   0 |      --      | 6.449013e+01 |    Inf | unknown
r 1.6s|     1 |     0 | 12871 |     - |simplero|   0 |3179 | 170 | 170 |   0 |  0 |   0 |   0 |      --      | 6.447602e+01 |    Inf | unknown
r 1.6s|     1 |     0 | 12880 |     - |simplero|   0 |3179 | 170 | 170 |   0 |  0 |   0 |   0 |      --      | 6.447406e+01 |    Inf | unknown
r 1.6s|     1 |     0 | 13016 |     - |simplero|   0 |3196 | 170 | 170 |   0 |  0 |   0 |   0 |      --      | 6.408233e+01 |    Inf | unknown
r 1.6s|     1 |     0 | 13067 |     - |simplero|   0 |3196 | 170 | 170 |   0 |  0 |   0 |   0 |      --      | 6.395275e+01 |    Inf | unknown
r 1.6s|     1 |     0 | 13095 |     - |simplero|   0 |3196 | 170 | 170 |   0 |  0 |   0 |   0 |      --      | 6.391558e+01 |    Inf | unknown
r 1.6s|     1 |     0 | 13105 |     - |simplero|   0 |3196 | 170 | 170 |   0 |  0 |   0 |   0 |      --      | 6.391275e+01 |    Inf | unknown
r 1.6s|     1 |     0 | 13226 |     - |simplero|   0 |3213 | 170 | 170 |   0 |  0 |   0 |   0 |      --      | 6.345379e+01 |    Inf | unknown
r 1.6s|     1 |     0 | 13244 |     - |simplero|   0 |3213 | 170 | 170 |   0 |  0 |   0 |   0 |      --      | 6.343873e+01 |    Inf | unknown
 time | node  | left  |LP iter|LP it/n|mem/heur|mdpt |vars |cons |rows |cuts |sepa|confs|strbr|  dualbound   | primalbound  |  gap   | compl. 
r 1.7s|     1 |     0 | 13252 |     - |simplero|   0 |3213 | 170 | 170 |   0 |  0 |   0 |   0 |      --      | 6.343709e+01 |    Inf | unknown
r 1.7s|     1 |     0 | 13369 |     - |simplero|   0 |3230 | 170 | 170 |   0 |  0 |   0 |   0 |      --      | 6.272212e+01 |    Inf | unknown
r 1.7s|     1 |     0 | 13386 |     - |simplero|   0 |3230 | 170 | 170 |   0 |  0 |   0 |   0 |      --      | 6.269356e+01 |    Inf | unknown
r 1.7s|     1 |     0 | 13388 |     - |simplero|   0 |3230 | 170 | 170 |   0 |  0 |   0 |   0 |      --      | 6.269349e+01 |    Inf | unknown
r 1.7s|     1 |     0 | 13497 |     - |simplero|   0 |3247 | 170 | 170 |   0 |  0 |   0 |   0 |      --      | 6.215023e+01 |    Inf | unknown
r 1.7s|     1 |     0 | 13526 |     - |simplero|   0 |3247 | 170 | 170 |   0 |  0 |   0 |   0 |      --      | 6.211074e+01 |    Inf | unknown
r 1.7s|     1 |     0 | 13528 |     - |simplero|   0 |3247 | 170 | 170 |   0 |  0 |   0 |   0 |      --      | 6.211062e+01 |    Inf | unknown
r 1.7s|     1 |     0 | 13614 |     - |simplero|   0 |3264 | 170 | 170 |   0 |  0 |   0 |   0 |      --      | 6.180897e+01 |    Inf | unknown
r 1.7s|     1 |     0 | 13682 |     - |simplero|   0 |3264 | 170 | 170 |   0 |  0 |   0 |   0 |      --      | 6.166325e+01 |    Inf | unknown
r 1.7s|     1 |     0 | 13689 |     - |simplero|   0 |3264 | 170 | 170 |   0 |  0 |   0 |   0 |      --      | 6.166082e+01 |    Inf | unknown
r 1.7s|     1 |     0 | 13805 |     - |simplero|   0 |3281 | 170 | 170 |   0 |  0 |   0 |   0 |      --      | 6.134967e+01 |    Inf | unknown
r 1.7s|     1 |     0 | 13817 |     - |simplero|   0 |3281 | 170 | 170 |   0 |  0 |   0 |   0 |      --      | 6.134518e+01 |    Inf | unknown
r 1.8s|     1 |     0 | 13956 |     - |simplero|   0 |3298 | 170 | 170 |   0 |  0 |   0 |   0 |      --      | 6.084166e+01 |    Inf | unknown
r 1.8s|     1 |     0 | 14005 |     - |simplero|   0 |3298 | 170 | 170 |   0 |  0 |   0 |   0 |      --      | 6.075537e+01 |    Inf | unknown
r 1.8s|     1 |     0 | 14011 |     - |simplero|   0 |3298 | 170 | 170 |   0 |  0 |   0 |   0 |      --      | 6.075507e+01 |    Inf | unknown
 time | node  | left  |LP iter|LP it/n|mem/heur|mdpt |vars |cons |rows |cuts |sepa|confs|strbr|  dualbound   | primalbound  |  gap   | compl. 
r 1.8s|     1 |     0 | 14012 |     - |simplero|   0 |3298 | 170 | 170 |   0 |  0 |   0 |   0 |      --      | 6.075507e+01 |    Inf | unknown
r 1.8s|     1 |     0 | 14164 |     - |simplero|   0 |3315 | 170 | 170 |   0 |  0 |   0 |   0 |      --      | 6.016954e+01 |    Inf | unknown
r 1.8s|     1 |     0 | 14186 |     - |simplero|   0 |3315 | 170 | 170 |   0 |  0 |   0 |   0 |      --      | 6.015672e+01 |    Inf | unknown
r 1.8s|     1 |     0 | 14296 |     - |simplero|   0 |3332 | 170 | 170 |   0 |  0 |   0 |   0 |      --      | 5.987508e+01 |    Inf | unknown
r 1.8s|     1 |     0 | 14360 |     - |simplero|   0 |3332 | 170 | 170 |   0 |  0 |   0 |   0 |      --      | 5.979517e+01 |    Inf | unknown
r 1.8s|     1 |     0 | 14365 |     - |simplero|   0 |3332 | 170 | 170 |   0 |  0 |   0 |   0 |      --      | 5.979350e+01 |    Inf | unknown
r 1.8s|     1 |     0 | 14514 |     - |simplero|   0 |3349 | 170 | 170 |   0 |  0 |   0 |   0 |      --      | 5.924147e+01 |    Inf | unknown
r 1.8s|     1 |     0 | 14587 |     - |simplero|   0 |3349 | 170 | 170 |   0 |  0 |   0 |   0 |      --      | 5.912466e+01 |    Inf | unknown
r 1.9s|     1 |     0 | 14602 |     - |simplero|   0 |3349 | 170 | 170 |   0 |  0 |   0 |   0 |      --      | 5.912220e+01 |    Inf | unknown
r 1.9s|     1 |     0 | 14743 |     - |simplero|   0 |3366 | 170 | 170 |   0 |  0 |   0 |   0 |      --      | 5.859327e+01 |    Inf | unknown
r 1.9s|     1 |     0 | 14821 |     - |simplero|   0 |3366 | 170 | 170 |   0 |  0 |   0 |   0 |      --      | 5.838819e+01 |    Inf | unknown
r 1.9s|     1 |     0 | 14837 |     - |simplero|   0 |3366 | 170 | 170 |   0 |  0 |   0 |   0 |      --      | 5.838102e+01 |    Inf | unknown
r 1.9s|     1 |     0 | 14979 |     - |simplero|   0 |3383 | 170 | 170 |   0 |  0 |   0 |   0 |      --      | 5.771598e+01 |    Inf | unknown
r 1.9s|     1 |     0 | 15004 |     - |simplero|   0 |3383 | 170 | 170 |   0 |  0 |   0 |   0 |      --      | 5.769475e+01 |    Inf | unknown
r 1.9s|     1 |     0 | 15014 |     - |simplero|   0 |3383 | 170 | 170 |   0 |  0 |   0 |   0 |      --      | 5.769060e+01 |    Inf | unknown
 time | node  | left  |LP iter|LP it/n|mem/heur|mdpt |vars |cons |rows |cuts |sepa|confs|strbr|  dualbound   | primalbound  |  gap   | compl. 
r 1.9s|     1 |     0 | 15016 |     - |simplero|   0 |3383 | 170 | 170 |   0 |  0 |   0 |   0 |      --      | 5.769051e+01 |    Inf | unknown
r 1.9s|     1 |     0 | 15017 |     - |simplero|   0 |3383 | 170 | 170 |   0 |  0 |   0 |   0 |      --      | 5.769051e+01 |    Inf | unknown
r 1.9s|     1 |     0 | 15160 |     - |simplero|   0 |3400 | 170 | 170 |   0 |  0 |   0 |   0 |      --      | 5.730899e+01 |    Inf | unknown
r 1.9s|     1 |     0 | 15217 |     - |simplero|   0 |3400 | 170 | 170 |   0 |  0 |   0 |   0 |      --      | 5.726003e+01 |    Inf | unknown
r 1.9s|     1 |     0 | 15231 |     - |simplero|   0 |3400 | 170 | 170 |   0 |  0 |   0 |   0 |      --      | 5.725659e+01 |    Inf | unknown
r 1.9s|     1 |     0 | 15235 |     - |simplero|   0 |3400 | 170 | 170 |   0 |  0 |   0 |   0 |      --      | 5.725583e+01 |    Inf | unknown
r 2.0s|     1 |     0 | 15303 |     - |simplero|   0 |3417 | 170 | 170 |   0 |  0 |   0 |   0 |      --      | 5.699984e+01 |    Inf | unknown
r 2.0s|     1 |     0 | 15341 |     - |simplero|   0 |3417 | 170 | 170 |   0 |  0 |   0 |   0 |      --      | 5.695009e+01 |    Inf | unknown
r 2.0s|     1 |     0 | 15344 |     - |simplero|   0 |3417 | 170 | 170 |   0 |  0 |   0 |   0 |      --      | 5.694959e+01 |    Inf | unknown
r 2.0s|     1 |     0 | 15442 |     - |simplero|   0 |3434 | 170 | 170 |   0 |  0 |   0 |   0 |      --      | 5.668778e+01 |    Inf | unknown
r 2.0s|     1 |     0 | 15475 |     - |simplero|   0 |3434 | 170 | 170 |   0 |  0 |   0 |   0 |      --      | 5.662735e+01 |    Inf | unknown
r 2.0s|     1 |     0 | 15483 |     - |simplero|   0 |3434 | 170 | 170 |   0 |  0 |   0 |   0 |      --      | 5.662627e+01 |    Inf | unknown
r 2.0s|     1 |     0 | 15617 |     - |simplero|   0 |3451 | 170 | 170 |   0 |  0 |   0 |   0 |      --      | 5.633058e+01 |    Inf | unknown
r 2.0s|     1 |     0 | 15661 |     - |simplero|   0 |3451 | 170 | 170 |   0 |  0 |   0 |   0 |      --      | 5.629386e+01 |    Inf | unknown
r 2.0s|     1 |     0 | 15769 |     - |simplero|   0 |3468 | 170 | 170 |   0 |  0 |   0 |   0 |      --      | 5.599069e+01 |    Inf | unknown
 time | node  | left  |LP iter|LP it/n|mem/heur|mdpt |vars |cons |rows |cuts |sepa|confs|strbr|  dualbound   | primalbound  |  gap   | compl. 
  2.0s|     1 |     0 | 15795 |     - |    20M |   0 |3468 | 170 | 170 |   0 |  0 |   0 |   0 |      --      | 5.599069e+01 |    Inf | unknown
r 2.0s|     1 |     0 | 15795 |     - |simplero|   0 |3468 | 170 | 170 |   0 |  0 |   0 |   0 |      --      | 5.596987e+01 |    Inf | unknown
r 2.0s|     1 |     0 | 15798 |     - |simplero|   0 |3468 | 170 | 170 |   0 |  0 |   0 |   0 |      --      | 5.596986e+01 |    Inf | unknown
r 2.0s|     1 |     0 | 15903 |     - |simplero|   0 |3485 | 170 | 170 |   0 |  0 |   0 |   0 |      --      | 5.578041e+01 |    Inf | unknown
r 2.1s|     1 |     0 | 15910 |     - |simplero|   0 |3485 | 170 | 170 |   0 |  0 |   0 |   0 |      --      | 5.577836e+01 |    Inf | unknown
r 2.1s|     1 |     0 | 15917 |     - |simplero|   0 |3485 | 170 | 170 |   0 |  0 |   0 |   0 |      --      | 5.577784e+01 |    Inf | unknown
r 2.1s|     1 |     0 | 16045 |     - |simplero|   0 |3502 | 170 | 170 |   0 |  0 |   0 |   0 |      --      | 5.554685e+01 |    Inf | unknown
r 2.1s|     1 |     0 | 16067 |     - |simplero|   0 |3502 | 170 | 170 |   0 |  0 |   0 |   0 |      --      | 5.553383e+01 |    Inf | unknown
r 2.1s|     1 |     0 | 16072 |     - |simplero|   0 |3502 | 170 | 170 |   0 |  0 |   0 |   0 |      --      | 5.552529e+01 |    Inf | unknown
r 2.1s|     1 |     0 | 16185 |     - |simplero|   0 |3519 | 170 | 170 |   0 |  0 |   0 |   0 |      --      | 5.532359e+01 |    Inf | unknown
r 2.1s|     1 |     0 | 16207 |     - |simplero|   0 |3519 | 170 | 170 |   0 |  0 |   0 |   0 |      --      | 5.530766e+01 |    Inf | unknown
r 2.1s|     1 |     0 | 16214 |     - |simplero|   0 |3519 | 170 | 170 |   0 |  0 |   0 |   0 |      --      | 5.530682e+01 |    Inf | unknown
r 2.1s|     1 |     0 | 16343 |     - |simplero|   0 |3536 | 170 | 170 |   0 |  0 |   0 |   0 |      --      | 5.515421e+01 |    Inf | unknown
r 2.1s|     1 |     0 | 16379 |     - |simplero|   0 |3536 | 170 | 170 |   0 |  0 |   0 |   0 |      --      | 5.514140e+01 |    Inf | unknown
r 2.1s|     1 |     0 | 16381 |     - |simplero|   0 |3536 | 170 | 170 |   0 |  0 |   0 |   0 |      --      | 5.514136e+01 |    Inf | unknown
 time | node  | left  |LP iter|LP it/n|mem/heur|mdpt |vars |cons |rows |cuts |sepa|confs|strbr|  dualbound   | primalbound  |  gap   | compl. 
r 2.1s|     1 |     0 | 16462 |     - |simplero|   0 |3553 | 170 | 170 |   0 |  0 |   0 |   0 |      --      | 5.504813e+01 |    Inf | unknown
r 2.1s|     1 |     0 | 16468 |     - |simplero|   0 |3553 | 170 | 170 |   0 |  0 |   0 |   0 |      --      | 5.504677e+01 |    Inf | unknown
r 2.1s|     1 |     0 | 16556 |     - |simplero|   0 |3570 | 170 | 170 |   0 |  0 |   0 |   0 |      --      | 5.495413e+01 |    Inf | unknown
r 2.2s|     1 |     0 | 16605 |     - |simplero|   0 |3570 | 170 | 170 |   0 |  0 |   0 |   0 |      --      | 5.493082e+01 |    Inf | unknown
r 2.2s|     1 |     0 | 16632 |     - |simplero|   0 |3570 | 170 | 170 |   0 |  0 |   0 |   0 |      --      | 5.491540e+01 |    Inf | unknown
r 2.2s|     1 |     0 | 16635 |     - |simplero|   0 |3570 | 170 | 170 |   0 |  0 |   0 |   0 |      --      | 5.491539e+01 |    Inf | unknown
r 2.2s|     1 |     0 | 16759 |     - |simplero|   0 |3587 | 170 | 170 |   0 |  0 |   0 |   0 |      --      | 5.480036e+01 |    Inf | unknown
r 2.2s|     1 |     0 | 16768 |     - |simplero|   0 |3587 | 170 | 170 |   0 |  0 |   0 |   0 |      --      | 5.479953e+01 |    Inf | unknown
r 2.2s|     1 |     0 | 16775 |     - |simplero|   0 |3587 | 170 | 170 |   0 |  0 |   0 |   0 |      --      | 5.479898e+01 |    Inf | unknown
r 2.2s|     1 |     0 | 16892 |     - |simplero|   0 |3604 | 170 | 170 |   0 |  0 |   0 |   0 |      --      | 5.468508e+01 |    Inf | unknown
r 2.2s|     1 |     0 | 16923 |     - |simplero|   0 |3604 | 170 | 170 |   0 |  0 |   0 |   0 |      --      | 5.467991e+01 |    Inf | unknown
r 2.2s|     1 |     0 | 17054 |     - |simplero|   0 |3621 | 170 | 170 |   0 |  0 |   0 |   0 |      --      | 5.455239e+01 |    Inf | unknown
r 2.2s|     1 |     0 | 17071 |     - |simplero|   0 |3621 | 170 | 170 |   0 |  0 |   0 |   0 |      --      | 5.455063e+01 |    Inf | unknown
r 2.2s|     1 |     0 | 17075 |     - |simplero|   0 |3621 | 170 | 170 |   0 |  0 |   0 |   0 |      --      | 5.455055e+01 |    Inf | unknown
r 2.2s|     1 |     0 | 17186 |     - |simplero|   0 |3638 | 170 | 170 |   0 |  0 |   0 |   0 |      --      | 5.445218e+01 |    Inf | unknown
 time | node  | left  |LP iter|LP it/n|mem/heur|mdpt |vars |cons |rows |cuts |sepa|confs|strbr|  dualbound   | primalbound  |  gap   | compl. 
r 2.2s|     1 |     0 | 17204 |     - |simplero|   0 |3638 | 170 | 170 |   0 |  0 |   0 |   0 |      --      | 5.444954e+01 |    Inf | unknown
r 2.2s|     1 |     0 | 17310 |     - |simplero|   0 |3655 | 170 | 170 |   0 |  0 |   0 |   0 |      --      | 5.440290e+01 |    Inf | unknown
r 2.2s|     1 |     0 | 17326 |     - |simplero|   0 |3655 | 170 | 170 |   0 |  0 |   0 |   0 |      --      | 5.440206e+01 |    Inf | unknown
r 2.2s|     1 |     0 | 17328 |     - |simplero|   0 |3655 | 170 | 170 |   0 |  0 |   0 |   0 |      --      | 5.440205e+01 |    Inf | unknown
r 2.3s|     1 |     0 | 17397 |     - |simplero|   0 |3672 | 170 | 170 |   0 |  0 |   0 |   0 |      --      | 5.435613e+01 |    Inf | unknown
r 2.3s|     1 |     0 | 17430 |     - |simplero|   0 |3672 | 170 | 170 |   0 |  0 |   0 |   0 |      --      | 5.434693e+01 |    Inf | unknown
r 2.3s|     1 |     0 | 17435 |     - |simplero|   0 |3672 | 170 | 170 |   0 |  0 |   0 |   0 |      --      | 5.434688e+01 |    Inf | unknown
r 2.3s|     1 |     0 | 17511 |     - |simplero|   0 |3689 | 170 | 170 |   0 |  0 |   0 |   0 |      --      | 5.429793e+01 |    Inf | unknown
r 2.3s|     1 |     0 | 17527 |     - |simplero|   0 |3689 | 170 | 170 |   0 |  0 |   0 |   0 |      --      | 5.429433e+01 |    Inf | unknown
r 2.3s|     1 |     0 | 17529 |     - |simplero|   0 |3689 | 170 | 170 |   0 |  0 |   0 |   0 |      --      | 5.429432e+01 |    Inf | unknown
r 2.3s|     1 |     0 | 17603 |     - |simplero|   0 |3706 | 170 | 170 |   0 |  0 |   0 |   0 |      --      | 5.425664e+01 |    Inf | unknown
r 2.3s|     1 |     0 | 17636 |     - |simplero|   0 |3706 | 170 | 170 |   0 |  0 |   0 |   0 |      --      | 5.424265e+01 |    Inf | unknown
r 2.3s|     1 |     0 | 17809 |     - |simplero|   0 |3723 | 170 | 170 |   0 |  0 |   0 |   0 |      --      | 5.416055e+01 |    Inf | unknown
r 2.3s|     1 |     0 | 17822 |     - |simplero|   0 |3723 | 170 | 170 |   0 |  0 |   0 |   0 |      --      | 5.416043e+01 |    Inf | unknown
r 2.3s|     1 |     0 | 17824 |     - |simplero|   0 |3723 | 170 | 170 |   0 |  0 |   0 |   0 |      --      | 5.416042e+01 |    Inf | unknown
 time | node  | left  |LP iter|LP it/n|mem/heur|mdpt |vars |cons |rows |cuts |sepa|confs|strbr|  dualbound   | primalbound  |  gap   | compl. 
r 2.3s|     1 |     0 | 17914 |     - |simplero|   0 |3740 | 170 | 170 |   0 |  0 |   0 |   0 |      --      | 5.413761e+01 |    Inf | unknown
r 2.3s|     1 |     0 | 17962 |     - |simplero|   0 |3740 | 170 | 170 |   0 |  0 |   0 |   0 |      --      | 5.412787e+01 |    Inf | unknown
r 2.3s|     1 |     0 | 17985 |     - |simplero|   0 |3740 | 170 | 170 |   0 |  0 |   0 |   0 |      --      | 5.412595e+01 |    Inf | unknown
r 2.3s|     1 |     0 | 17995 |     - |simplero|   0 |3740 | 170 | 170 |   0 |  0 |   0 |   0 |      --      | 5.412546e+01 |    Inf | unknown
r 2.3s|     1 |     0 | 18085 |     - |simplero|   0 |3757 | 170 | 170 |   0 |  0 |   0 |   0 |      --      | 5.409201e+01 |    Inf | unknown
r 2.3s|     1 |     0 | 18175 |     - |simplero|   0 |3774 | 170 | 170 |   0 |  0 |   0 |   0 |      --      | 5.405822e+01 |    Inf | unknown
r 2.3s|     1 |     0 | 18265 |     - |simplero|   0 |3774 | 170 | 170 |   0 |  0 |   0 |   0 |      --      | 5.405030e+01 |    Inf | unknown
r 2.4s|     1 |     0 | 18285 |     - |simplero|   0 |3774 | 170 | 170 |   0 |  0 |   0 |   0 |      --      | 5.404939e+01 |    Inf | unknown
r 2.4s|     1 |     0 | 18401 |     - |simplero|   0 |3791 | 170 | 170 |   0 |  0 |   0 |   0 |      --      | 5.402497e+01 |    Inf | unknown
r 2.4s|     1 |     0 | 18441 |     - |simplero|   0 |3791 | 170 | 170 |   0 |  0 |   0 |   0 |      --      | 5.402177e+01 |    Inf | unknown
r 2.4s|     1 |     0 | 18444 |     - |simplero|   0 |3791 | 170 | 170 |   0 |  0 |   0 |   0 |      --      | 5.402176e+01 |    Inf | unknown
r 2.4s|     1 |     0 | 18500 |     - |simplero|   0 |3808 | 170 | 170 |   0 |  0 |   0 |   0 |      --      | 5.401550e+01 |    Inf | unknown
r 2.4s|     1 |     0 | 18529 |     - |simplero|   0 |3808 | 170 | 170 |   0 |  0 |   0 |   0 |      --      | 5.401435e+01 |    Inf | unknown
r 2.4s|     1 |     0 | 18624 |     - |simplero|   0 |3823 | 170 | 170 |   0 |  0 |   0 |   0 |      --      | 5.400287e+01 |    Inf | unknown
r 2.4s|     1 |     0 | 18651 |     - |simplero|   0 |3823 | 170 | 170 |   0 |  0 |   0 |   0 |      --      | 5.400107e+01 |    Inf | unknown
 time | node  | left  |LP iter|LP it/n|mem/heur|mdpt |vars |cons |rows |cuts |sepa|confs|strbr|  dualbound   | primalbound  |  gap   | compl. 
r 2.4s|     1 |     0 | 18661 |     - |simplero|   0 |3839 | 170 | 170 |   0 |  0 |   0 |   0 |      --      | 5.400000e+01 |    Inf | unknown
  2.4s|     1 |     0 | 18661 |     - |    24M |   0 |3839 | 170 | 170 |   0 |  0 |   0 |   0 | 5.400000e+01 | 5.400000e+01 |   0.00%| unknown
  2.4s|     1 |     0 | 18661 |     - |    24M |   0 |3839 | 170 | 170 |   0 |  0 |   0 |   0 | 5.400000e+01 | 5.400000e+01 |   0.00%| unknown

SCIP Status        : problem is solved [optimal solution found]
Solving Time (sec) : 2.39
Solving Nodes      : 1
Primal Bound       : +5.40000000000000e+01 (192 solutions)
Dual Bound         : +5.40000000000000e+01
Gap                : 0.00 %

written transformed problem to file <results_rootrelaxation/bin018_090_028.srr.lp>
written transformed problem to file <results_rootrelaxation/bin018_090_028.srr.cip>

written solution information to file <results_rootrelaxation/bin018_090_028.srr.sol>



